# Random Circle Problem
param d := 0.05; 
param n := 10; 
param radius := 2.00; 
param v0 := 
1 5.61
2 5.06
3 5.92
4 5.57
5 5.31
6 5.27
7 5.70
8 5.81
9 5.07
10 5.38
;
param cap := 
1 3.25734
2 3.60899
3 4.37351
4 4.78412
5 5.16480
6 0.47962
7 0.77668
8 1.23932
9 1.54107
10 2.53180
;
param x0 := 
1 2.00
2 1.62
3 0.62
4 -0.62
5 -1.62
6 -2.00
7 -1.62
8 -0.62
9 0.62
10 1.62
;
param y0 := 
1 -0.00
2 1.18
3 1.90
4 1.90
5 1.18
6 0.00
7 -1.18
8 -1.90
9 -1.90
10 -1.18
;
